(declare-fun temp380_2 () (_ BitVec 64))
(declare-fun temp380_1 () (_ BitVec 64))
(declare-fun temp380_3 () (_ BitVec 64))
(declare-fun var463945 () (_ BitVec 64))
(declare-fun temp380_4 () (_ BitVec 64))
(declare-fun var788278 () (_ BitVec 64))
(declare-fun var987356 () (_ BitVec 64))
(declare-fun temp380_5 () (_ BitVec 64))
(declare-fun temp380_6 () (_ BitVec 64))
(declare-fun var464053 () (_ BitVec 64))
(declare-fun k!0 () Bool)
(declare-fun ARGNAME_n_NAMEEND () (_ BitVec 64))
(declare-fun temp380_7 () (_ BitVec 64))
(declare-fun var464087 () (_ BitVec 64))
(declare-fun temp380_8 () (_ BitVec 64))
(declare-fun var464088 () (_ BitVec 64))
(declare-fun temp380_9 () (_ BitVec 64))
(declare-fun ARGNAME_input_NAMEEND_DIM () (_ BitVec 64))
(declare-fun var1443819 () (_ BitVec 64))
(declare-fun temp380_11 () (_ BitVec 64))
(declare-fun temp380_10 () (_ BitVec 64))
(declare-fun var1510263 () (_ BitVec 64))
(declare-fun temp380_12 () (_ BitVec 64))
(declare-fun var1576712 () (_ BitVec 64))
(declare-fun var1642257 () (_ BitVec 64))
(declare-fun temp380_14 () (_ BitVec 64))
(declare-fun temp380_13 () (_ BitVec 64))
(declare-fun temp380_15 () (_ BitVec 64))
(declare-fun var1838839 () (_ BitVec 64))
(declare-fun temp380_16 () (_ BitVec 64))
(declare-fun var1443880 () (_ BitVec 64))
(declare-fun temp380_17 () (_ BitVec 64))
(declare-fun var1443922 () (_ BitVec 64))
(declare-fun temp380_19 () (_ BitVec 64))
(declare-fun temp380_18 () (_ BitVec 64))
(declare-fun temp380_20 () (_ BitVec 64))
(declare-fun var2427896 () (_ BitVec 64))
(declare-fun temp380_21 () (_ BitVec 64))
(declare-fun var2427934 () (_ BitVec 64))
(declare-fun temp380_22 () (_ BitVec 64))
(declare-fun var1443867 () (_ BitVec 64))
(declare-fun var1443866 () (_ BitVec 64))
(declare-fun temp380_23 () (_ BitVec 64))
(declare-fun var1443871 () (_ BitVec 64))
(declare-fun temp380_24 () (_ BitVec 64))
(declare-fun var1443873 () (_ BitVec 64))
(declare-fun temp380_25 () (_ BitVec 64))
(declare-fun temp380_26 () (_ BitVec 64))
(declare-fun var3607706 () (_ BitVec 64))
(declare-fun var4131022 () (_ BitVec 64))
(declare-fun temp380_27 () (_ BitVec 64))
(declare-fun temp380_28 () (_ BitVec 64))
(declare-fun var4131052 () (_ BitVec 64))
(declare-fun var4131099 () (_ BitVec 64))
(declare-fun var4131020 () (_ BitVec 64))
(declare-fun var464128 () (_ BitVec 64))
(declare-fun temp380_29 () (_ BitVec 64))
(declare-fun var464149 () (_ BitVec 64))
(declare-fun var4527435 () (_ BitVec 64))
(assert (= temp380_2 #x0000000000000000))
(assert (= temp380_1 temp380_2))
(assert (= temp380_3 #x0000000000000001))
(assert (= var463945 temp380_3))
(assert (= temp380_4 #x0000000000000001))
(assert (= var788278 temp380_4))
(assert (= var987356 var788278))
(assert (= temp380_5 #x0000000000000001))
(assert (= var464053
   (ite (bvslt ARGNAME_n_NAMEEND temp380_5)
        #x0000000000000001
        #x0000000000000000)))
(assert (= temp380_6 #x0000000000000000))
(assert (= var464053 temp380_6))
(assert (= temp380_7 #x0000000000000002))
(assert (= var464087 (bvsdiv ARGNAME_n_NAMEEND temp380_7)))
(assert (= temp380_8 #x0000000000000001))
(assert (= var464088 (bvadd var464087 temp380_8)))
(assert (= temp380_9 #x0000000000000001))
(assert (= var1443819 (bvshl ARGNAME_input_NAMEEND_DIM temp380_9)))
(assert (= temp380_11 #x0000000000000000))
(assert (= temp380_10 temp380_11))
(assert (= var1510263 var1443819))
(assert (= temp380_12 #x0000000000000005))
(assert (= var1576712 temp380_12))
(assert (= var1642257 var1510263))
(assert (= temp380_14 #x0000000000000000))
(assert (= temp380_13 temp380_14))
(assert (= temp380_15 #x0000000000000000))
(assert (= var1838839 temp380_15))
(assert (= temp380_16 #x0000000000000000))
(assert (= var1443880 temp380_16))
(assert (= temp380_17 #x0000000000000001))
(assert (= var1443922 temp380_17))
(assert (= temp380_19 #x0000000000000000))
(assert (= temp380_18 temp380_19))
(assert (= temp380_20 #x0000000000000001))
(assert (= var2427896 temp380_20))
(assert (= temp380_21 #x0000000000000000))
(assert (= var2427934 temp380_21))
(assert (= temp380_22 #x0000000000000000))
(assert (= var2427934 temp380_22))
(assert (= var1443867 var1443922))
(assert (= var1443866 var1443867))
(assert (= temp380_23 #x0000000000000001))
(assert (= var1443871 (bvand var1443866 temp380_23)))
(assert (= temp380_24 #x0000000000000000))
(assert (= var1443873
   (ite (= var1443871 temp380_24) #x0000000000000001 #x0000000000000000)))
(assert (= temp380_25 #x0000000000000000))
(assert (= var1443873 temp380_25))
(assert (= temp380_26 #x0000000000000000))
(assert (= var3607706 temp380_26))
(assert (= var4131022 var463945))
(assert (= temp380_27 #x0000000000000000))
(assert (= temp380_28 #x0000000000000002))
(assert (= var4131052 (ite (= var4131022 #x0000000000000001) temp380_27 temp380_28)))
(assert (= var4131099 var4131052))
(assert (= var4131020 var4131099))
(assert (= var464128 var4131020))
(assert (= temp380_29 #x0000000000000001))
(assert (= var463945 temp380_29))
(assert (= var464149 var464128))
(assert (= var4527435 var464149))
(model-add temp380_2 () (_ BitVec 64) #x0000000000000000)
(model-add temp380_1 () (_ BitVec 64) #x0000000000000000)
(model-add temp380_3 () (_ BitVec 64) #x0000000000000001)
(model-add var463945 () (_ BitVec 64) #x0000000000000001)
(model-add temp380_4 () (_ BitVec 64) #x0000000000000001)
(model-add var788278 () (_ BitVec 64) #x0000000000000001)
(model-add var987356 () (_ BitVec 64) #x0000000000000001)
(model-add temp380_5 () (_ BitVec 64) #x0000000000000001)
(model-add temp380_6 () (_ BitVec 64) #x0000000000000000)
(model-add var464053 () (_ BitVec 64) #x0000000000000000)
(model-del k!0)
(model-add ARGNAME_n_NAMEEND
           ()
           (_ BitVec 64)
           (ite (or k!0 (= #x0000000000000001 #x8000000000000000))
                #x0000000000000001
                (bvsub #x0000000000000001 #x0000000000000001)))






